Route #1: 58 32 4 22 45 50 76 70
Route #2: 49 73 36 66 67 53 42
Route #3: 46 25 41 55 9 54 72 38
Route #4: 51 77 64 33 15 47 56 69 65 35 26 19 57 75 20 31
Route #5: 13 74 60 39 3
Route #6: 62 12 44 59 27 17 29
Route #7: 2 37 8 68 43 16 61 78 5
Route #8: 63 11 52 34 24 6 30 23
Route #9: 10 71 28 79 18 48 14
Route #10: 1 7 21 40
Cost 1772
Time 0.192628
